(set-info :original "../out2/s_swap_override_no_op.c/s_swap_override_no_opfdf09.bc.txt")
(set-info :authors "SeaHorn v.10.0.0-rc0")
(declare-rel verifier.error (Bool Bool Bool ))
(declare-rel __CPROVER_file_local_priority_queue_c_s_swap@_tail ())
(declare-rel __CPROVER_file_local_priority_queue_c_s_swap@.split ())
(declare-rel __CPROVER_file_local_priority_queue_c_s_swap (Bool Bool Bool ))
(declare-rel main@_tail ())
(declare-rel main@.split ())
(declare-var __CPROVER_file_local_priority_queue_c_s_swap@_tail_0 Bool )
(declare-var __CPROVER_file_local_priority_queue_c_s_swap@.split_0 Bool )
(declare-var main@_tail_0 Bool )
(declare-var main@.split_0 Bool )
(rule (verifier.error false false false))
(rule (verifier.error false true true))
(rule (verifier.error true false true))
(rule (verifier.error true true true))
(rule (__CPROVER_file_local_priority_queue_c_s_swap true true true))
(rule (__CPROVER_file_local_priority_queue_c_s_swap false true true))
(rule (__CPROVER_file_local_priority_queue_c_s_swap false false false))
(rule __CPROVER_file_local_priority_queue_c_s_swap@_tail)
(rule (=> (and __CPROVER_file_local_priority_queue_c_s_swap@_tail
         true
         (=> __CPROVER_file_local_priority_queue_c_s_swap@.split_0
             (and __CPROVER_file_local_priority_queue_c_s_swap@.split_0
                  __CPROVER_file_local_priority_queue_c_s_swap@_tail_0))
         __CPROVER_file_local_priority_queue_c_s_swap@.split_0)
    __CPROVER_file_local_priority_queue_c_s_swap@.split))
(rule (=> __CPROVER_file_local_priority_queue_c_s_swap@.split
    (__CPROVER_file_local_priority_queue_c_s_swap true false false)))
(rule main@_tail)
(rule (=> (and main@_tail
         true
         (__CPROVER_file_local_priority_queue_c_s_swap true false false)
         (=> main@.split_0 (and main@.split_0 main@_tail_0))
         main@.split_0)
    main@.split))
(query main@.split)

